; benchmark generated from python API
(set-info :status unknown)
(declare-sort index)
 (declare-fun q.t () Int)
(declare-fun |__ts0__new_fml:val| () Int)
(declare-fun q.count (Int) Int)
(declare-fun |__loc:y| () Int)
(declare-fun __q.count (Int) Int)
(declare-fun |0:index| () index)
(declare-fun q.pending (Int) Bool)
(declare-fun time.succ (Int Int) Bool)
(declare-fun __q.receiving.now () Bool)
(declare-fun __ts0_b () Bool)
(declare-fun q.receiving.now () Bool)
(declare-fun __ts0__m_q.receiving.now () Bool)
(declare-fun __q.pending (Int) Bool)
(declare-fun q.trying.now () Bool)
(declare-fun __m_q.trying.now () Bool)
(declare-fun |<:index:index| (index index) Bool)
(declare-fun index.succ (index index) Bool)
(declare-fun __ts0_a () Bool)
(declare-fun __q.trying.now () Bool)
(declare-fun q.sending.now () Bool)
(assert
 (let (($x263 (forall ((|X0:time| Int) )(let (($x46 (<= 0 |X0:time|)))
 (let (($x118 (and $x46)))
 (=> $x118 (not (> 0 (q.count |X0:time|)))))))
 ))
 (let (($x101 (not (> 0 |__loc:y|))))
 (let (($x135 (forall ((|X0:time| Int) )(let (($x46 (<= 0 |X0:time|)))
 (let (($x118 (and $x46)))
 (=> $x118 (not (> 0 (__q.count |X0:time|)))))))
 ))
 (let (($x289 (forall ((|X:time| Int) )(let (($x175 (= |X:time| 0)))
 (let ((?x182 (+ (ite $x175 0 (q.count (ite (> 1 |X:time|) 0 (- |X:time| 1)))) (ite (q.pending |X:time|) 1 0))))
 (let ((?x193 (q.count |X:time|)))
 (= ?x193 ?x182)))))
 ))
 (let (($x215 (forall ((|X:time| Int) (|Y:time| Int) )(= (time.succ |X:time| |Y:time|) (= |Y:time| (+ |X:time| 1))))
 ))
 (let (($x32 (= |__ts0__new_fml:val| |__loc:y|)))
 (let (($x158 (forall ((|V0:time| Int) )(let (($x107 (__q.pending |V0:time|)))
 (let (($x56 (q.pending |V0:time|)))
 (= $x56 (ite __ts0_b $x107 (ite (and (= |V0:time| |__loc:y|)) false $x107))))))
 ))
 (let (($x187 (forall ((|X:time| Int) )(let (($x175 (= |X:time| 0)))
 (let ((?x172 (+ (ite $x175 0 (__q.count (ite (> 1 |X:time|) 0 (- |X:time| 1)))) (ite (__q.pending |X:time|) 1 0))))
 (let ((?x225 (__q.count |X:time|)))
 (= ?x225 ?x172)))))
 ))
 (let (($x29 (forall ((|X:time| Int) )(let (($x46 (<= 0 |X:time|)))
 (let (($x118 (and $x46)))
 (=> $x118 $x46))))
 ))
 (let (($x63 (forall ((|T:time| Int) (|U:time| Int) )(=> (and (<= 0 |T:time|) (<= 0 |U:time|)) (or (< |T:time| |U:time|) (= |T:time| |U:time|) (< |U:time| |T:time|))))
 ))
 (let (($x92 (forall ((|T:time| Int) (|U:time| Int) )(=> (and (<= 0 |T:time|) (<= 0 |U:time|)) (not (and (< |T:time| |U:time|) (< |U:time| |T:time|)))))
 ))
 (let (($x102 (forall ((|T:time| Int) (|U:time| Int) (|V:time| Int) )(=> (and (and (<= 0 |T:time|) (<= 0 |U:time|) (<= 0 |V:time|)) (and (< |T:time| |U:time|) (< |U:time| |V:time|))) (< |T:time| |V:time|)))
 ))
 (let (($x140 (forall ((|X:time| Int) (|Y:time| Int) (|Z:time| Int) )(let (($x21 (=> (time.succ |X:time| |Z:time|) (and (< |X:time| |Z:time|) (not (and (< |X:time| |Y:time|) (< |Y:time| |Z:time|)))))))
 (=> (and (and (<= 0 |X:time|) (<= 0 |Y:time|) (<= 0 |Z:time|)) (time.succ |X:time| |Z:time|)) (and (< |X:time| |Z:time|) (not (and (< |X:time| |Y:time|) (< |Y:time| |Z:time|)))))))
 ))
 (let (($x14 (forall ((|X:index| index) )(or (= |0:index| |X:index|) (|<:index:index| |0:index| |X:index|)))
 ))
 (let (($x87 (forall ((|T:index| index) (|U:index| index) )(let (($x51 (|<:index:index| |U:index| |T:index|)))
 (let (($x91 (|<:index:index| |T:index| |U:index|)))
 (or $x91 (= |T:index| |U:index|) $x51))))
 ))
 (let (($x122 (forall ((|T:index| index) (|U:index| index) )(not (and (|<:index:index| |T:index| |U:index|) (|<:index:index| |U:index| |T:index|))))
 ))
 (let (($x12 (forall ((|T:index| index) (|U:index| index) (|V:index| index) )(let (($x110 (|<:index:index| |T:index| |V:index|)))
 (=> (and (|<:index:index| |T:index| |U:index|) (|<:index:index| |U:index| |V:index|)) $x110)))
 ))
 (let (($x7 (forall ((|X:index| index) (|Y:index| index) (|Z:index| index) )(let (($x110 (|<:index:index| |X:index| |Z:index|)))
 (let (($x69 (and $x110 (not (and (|<:index:index| |X:index| |Y:index|) (|<:index:index| |Y:index| |Z:index|))))))
 (let (($x68 (index.succ |X:index| |Z:index|)))
 (=> $x68 $x69)))))
 ))
 (let (($x97 (forall ((|V0:time| Int) )(let (($x46 (<= 0 |V0:time|)))
 (let (($x118 (and $x46)))
 (=> $x118 (or (not __ts0_b) (not (__q.pending |V0:time|)))))))
 ))
 (let (($x61 (forall ((|V0:time| Int) )(let (($x107 (__q.pending |V0:time|)))
 (let (($x43 (not __ts0_a)))
 (let (($x106 (or $x43 (not (and $x107 (and (<= |V0:time| |__loc:y|) (not (= |V0:time| |__loc:y|))))))))
 (let (($x46 (<= 0 |V0:time|)))
 (let (($x118 (and $x46)))
 (=> $x118 $x106)))))))
 ))
 (let (($x108 (__q.pending |__loc:y|)))
 (let (($x43 (not __ts0_a)))
 (let (($x80 (or $x43 $x108)))
 (let (($x53 (or __ts0_a __ts0_b)))
 (and (not q.sending.now) (not __q.trying.now) (not __q.receiving.now) $x53 $x80 $x61 $x97 (not (=> (q.pending q.t) (< (q.count q.t) (__q.count q.t)))) $x7 $x12 $x122 $x87 $x14 $x140 $x102 $x92 $x63 $x29 (and $x187 $x135) __m_q.trying.now (not q.trying.now) (and $x158 $x101) (and $x32 (not (> 0 |__ts0__new_fml:val|)) $x101) __ts0__m_q.receiving.now (= q.receiving.now (ite __ts0_b __q.receiving.now false)) $x215 (and $x289 $x263) $x135 $x101 $x263 (not (> 0 |__ts0__new_fml:val|)) (not (> 0 q.t))))))))))))))))))))))))))))
(assert
 (and (not false)))
(check-sat)
